45
raw_data/rcpsp/DC2-npv75.xlsx rcpspdc405
Time limit set to 60 seconds
Running CP solver
/home/omastto1/General-Optimization-Solver/src/solvers/rcpsp.py:31(stream:97:6): Warning: Cumulative expression 'pulse': height is zero, expression is zero everywhere.
                                                                                            VarCumulAtom_240 = pulse("0", 0)
/home/omastto1/General-Optimization-Solver/src/solvers/rcpsp.py:31(stream:97:1213): Warning: Cumulative expression 'pulse': height is zero, expression is zero everywhere.
                                                                                               VarCumulAtom_316 = pulse("76", 0)
/home/omastto1/General-Optimization-Solver/src/solvers/rcpsp.py:31(stream:98:6): Warning: Cumulative expression 'pulse': height is zero, expression is zero everywhere.
                                                                                            VarCumulAtom_320 = pulse("0", 0)
/home/omastto1/General-Optimization-Solver/src/solvers/rcpsp.py:31(stream:98:1215): Warning: Cumulative expression 'pulse': height is zero, expression is zero everywhere.
                                                                                               VarCumulAtom_396 = pulse("76", 0)
/home/omastto1/General-Optimization-Solver/src/solvers/rcpsp.py:31(stream:99:6): Warning: Cumulative expression 'pulse': height is zero, expression is zero everywhere.
                                                                                            VarCumulAtom_400 = pulse("0", 0)
/home/omastto1/General-Optimization-Solver/src/solvers/rcpsp.py:31(stream:99:1212): Warning: Cumulative expression 'pulse': height is zero, expression is zero everywhere.
                                                                                               VarCumulAtom_476 = pulse("76", 0)
/home/omastto1/General-Optimization-Solver/src/solvers/rcpsp.py:31(stream:100:6): Warning: Cumulative expression 'pulse': height is zero, expression is zero everywhere.
                                                                                             VarCumulAtom_480 = pulse("0", 0)
/home/omastto1/General-Optimization-Solver/src/solvers/rcpsp.py:31(stream:100:1215): Warning: Cumulative expression 'pulse': height is zero, expression is zero everywhere.
                                                                                                VarCumulAtom_556 = pulse("76", 0)
 ! --------------------------------------------------- CP Optimizer 20.1.0.0 --
 ! Minimization problem - 78 variables, 452 constraints
 ! TimeLimit            = 60
 ! Workers              = 14
 ! LogVerbosity         = Terse
 ! Initial process time : 0.01s (0.01s extraction + 0.00s propagation)
 !  . Log search space  : 502.5 (before), 502.5 (after)
 !  . Memory usage      : 834.3 kB (before), 834.3 kB (after)
 ! Using parallel search with 14 workers.
 ! ----------------------------------------------------------------------------
 !          Best Branches  Non-fixed    W       Branch decision
                        0         78                 -
 + New bound is 297
 ! Using iterative diving.
 ! Using temporal relaxation.
 *           346      218  1.01s        1      (gap is 14.16%)
 *           345      374  1.01s        1      (gap is 13.91%)
 *           336      530  1.01s        1      (gap is 11.61%)
 *           325     1111  1.01s        1      (gap is 8.62%)
 *           321     2432  1.01s        1      (gap is 7.48%)
 *           320     2854  1.01s        3      (gap is 7.19%)
 ! Using failure-directed search.
 *           316     8414  2.02s        4      (gap is 6.01%)
 *           315    15615  3.97s        5      (gap is 5.71%)
 *           314    18582  3.97s        5      (gap is 5.41%)
 *           313    19103  4.97s        5      (gap is 5.11%)
 *           312    22516  5.96s        2      (gap is 4.81%)
 *           311    21086  5.96s        9      (gap is 4.50%)
 *           310    24045  6.95s       10      (gap is 4.19%)
 *           309    31389  7.96s        5      (gap is 3.88%)
 *           308    33388  7.96s        5      (gap is 3.57%)
 *           307    36921  8.96s        5      (gap is 3.26%)
 *           306    34882  9.91s        6      (gap is 2.94%)
 *           304    38645  9.91s        5      (gap is 2.30%)
 *           303     127k  11.94s      12      (gap is 1.98%)
 ! Time = 11.94s, Average fail depth = 46, Memory usage = 13.9 MB
 ! Current bound is 297 (gap is 1.98%)
 !          Best Branches  Non-fixed    W       Branch decision
 *           301    55217  13.96s       2      (gap is 1.33%)
 *           299     180k  16.00s      12      (gap is 0.67%)
 *           298     200k  18.09s      13      (gap is 0.34%)
 ! ----------------------------------------------------------------------------
 ! Search terminated by limit, 22 solutions found.
 ! Best objective         : 298 (gap is 0.34%)
 ! Best bound             : 297
 ! ----------------------------------------------------------------------------
 ! Number of branches     : 4488202
 ! Number of fails        : 841561
 ! Total memory usage     : 13.5 MB (13.4 MB CP Optimizer + 0.1 MB Concert)
 ! Time spent in solve    : 60.07s (60.06s engine + 0.01s extraction)
 ! Search speed (br. / s) : 74728.6
 ! ----------------------------------------------------------------------------
(297,)
(0.0033557,)
(298,)
Objective value: 298
Solution is 0.3 % worse than the optimum.
Feasible solution found
